Route #1: 1 1 6 10 3 8 16 17 12 14 11 1 
Route #2: 1 4 2 7 9 15 13 5 18 1 

Cost 218.403
Time 0.0690


 * Another infos *

 Iterations: 19 Time: 0.0690 sec - 0.0012 min - 0.0000 horas
0.0000 h 0.0012 min
Problem dimension: 19
